50
120
99
98
96
91
88
88
86
86
82
82
81
78
77
77
76
76
72
72
70
68
67
64
61
60
59
56
55
49
48
47
47
46
44
43
43
42
40
40
39
38
35
34
30
30
29
27
26
21
20
20
